33D32945 STP File, STP Format Version 1.0

SECTION Comment
Name    "i080-144"
Creator "Cees Duin"
Remark  "Incidence graph"
END

SECTION Graph
Nodes 80
Edges 632
E 1 3 301
E 1 19 193
E 1 23 192
E 1 31 198
E 1 38 195
E 1 41 204
E 1 42 197
E 1 43 198
E 1 46 200
E 1 55 204
E 1 70 203
E 1 78 198
E 2 9 202
E 2 10 202
E 2 13 198
E 2 22 198
E 2 25 205
E 2 26 199
E 2 27 193
E 2 31 212
E 2 35 203
E 2 38 201
E 2 42 202
E 2 48 200
E 2 49 192
E 2 53 199
E 2 59 198
E 2 64 197
E 2 74 209
E 3 5 303
E 3 6 302
E 3 8 305
E 3 16 195
E 3 27 204
E 3 31 201
E 3 40 197
E 3 41 191
E 3 46 200
E 3 55 204
E 3 57 198
E 3 60 193
E 3 63 190
E 3 65 211
E 3 71 198
E 3 76 209
E 3 79 196
E 4 18 196
E 4 32 204
E 4 40 206
E 4 42 193
E 4 44 195
E 4 46 196
E 4 47 201
E 4 50 206
E 4 53 206
E 4 59 205
E 4 60 201
E 4 72 203
E 4 75 206
E 4 79 193
E 4 80 199
E 5 8 300
E 5 11 194
E 5 14 198
E 5 47 218
E 5 52 199
E 5 58 197
E 5 66 195
E 5 73 199
E 5 78 201
E 5 80 192
E 6 14 198
E 6 15 198
E 6 20 199
E 6 22 199
E 6 24 198
E 6 31 193
E 6 34 199
E 6 37 203
E 6 38 208
E 6 46 204
E 6 50 207
E 6 52 189
E 6 53 195
E 6 57 205
E 6 74 191
E 6 80 195
E 7 10 195
E 7 14 199
E 7 20 202
E 7 22 198
E 7 24 199
E 7 26 204
E 7 32 205
E 7 34 202
E 7 35 211
E 7 36 196
E 7 41 204
E 7 42 200
E 7 44 194
E 7 46 197
E 7 54 197
E 7 56 196
E 7 59 205
E 7 69 195
E 7 72 198
E 7 74 192
E 7 75 208
E 8 13 206
E 8 17 200
E 8 18 201
E 8 20 208
E 8 23 200
E 8 24 200
E 8 39 193
E 8 43 199
E 8 44 201
E 8 45 192
E 8 47 203
E 8 50 198
E 8 60 198
E 8 75 202
E 8 76 204
E 9 11 97
E 9 17 101
E 9 28 94
E 9 42 95
E 9 43 104
E 9 47 100
E 9 55 101
E 9 63 104
E 9 66 111
E 9 67 91
E 9 79 102
E 10 11 101
E 10 12 103
E 10 19 100
E 10 27 98
E 10 31 96
E 10 47 108
E 10 51 97
E 10 55 106
E 10 58 99
E 10 65 92
E 10 68 108
E 10 69 94
E 10 70 102
E 10 74 95
E 10 76 92
E 11 13 97
E 11 15 96
E 11 18 100
E 11 23 95
E 11 25 97
E 11 34 99
E 11 36 106
E 11 41 93
E 11 46 102
E 11 48 104
E 11 49 104
E 11 55 102
E 11 60 104
E 11 62 93
E 11 68 101
E 11 69 100
E 11 70 96
E 11 72 103
E 11 75 93
E 11 78 95
E 12 14 96
E 12 15 97
E 12 19 101
E 12 20 103
E 12 24 96
E 12 28 97
E 12 34 103
E 12 39 100
E 12 41 101
E 12 58 102
E 12 69 97
E 12 70 108
E 12 72 102
E 12 73 107
E 12 79 104
E 12 80 98
E 13 17 109
E 13 19 100
E 13 24 98
E 13 38 103
E 13 43 102
E 13 55 94
E 13 69 99
E 13 70 100
E 13 71 103
E 14 18 96
E 14 22 102
E 14 23 91
E 14 31 105
E 14 43 106
E 14 51 98
E 14 56 99
E 14 61 93
E 14 68 105
E 14 70 101
E 15 18 101
E 15 28 97
E 15 35 101
E 15 38 108
E 15 48 97
E 15 53 100
E 15 62 98
E 15 74 99
E 15 76 103
E 16 18 97
E 16 19 94
E 16 24 96
E 16 25 97
E 16 26 98
E 16 33 97
E 16 36 91
E 16 38 98
E 16 40 105
E 16 43 105
E 16 46 98
E 16 47 91
E 16 51 94
E 16 53 101
E 16 57 100
E 16 60 96
E 16 64 93
E 16 67 98
E 16 69 99
E 16 71 98
E 16 76 110
E 17 21 99
E 17 23 100
E 17 24 98
E 17 29 99
E 17 36 109
E 17 39 102
E 17 43 100
E 17 47 99
E 17 51 107
E 17 57 107
E 17 58 103
E 17 63 99
E 17 70 106
E 17 71 96
E 17 77 94
E 17 80 91
E 18 20 98
E 18 22 93
E 18 27 94
E 18 33 93
E 18 36 97
E 18 44 94
E 18 48 109
E 18 62 113
E 18 69 105
E 18 75 97
E 18 79 105
E 19 23 94
E 19 26 100
E 19 30 102
E 19 42 98
E 19 48 109
E 19 51 106
E 19 53 100
E 19 57 102
E 19 66 96
E 19 74 109
E 19 77 102
E 20 24 96
E 20 26 90
E 20 28 107
E 20 30 99
E 20 36 110
E 20 40 101
E 20 47 95
E 20 48 106
E 20 49 92
E 20 53 97
E 20 64 79
E 21 25 99
E 21 30 99
E 21 42 99
E 21 54 95
E 21 55 98
E 21 63 96
E 21 78 103
E 22 24 99
E 22 26 108
E 22 36 97
E 22 43 106
E 22 48 98
E 22 49 92
E 22 54 98
E 22 57 101
E 22 58 105
E 22 76 102
E 22 80 95
E 23 27 106
E 23 28 96
E 23 30 98
E 23 43 99
E 23 48 96
E 23 50 97
E 23 51 98
E 23 53 99
E 23 59 97
E 23 76 96
E 24 37 112
E 24 40 97
E 24 44 102
E 24 47 91
E 24 52 102
E 24 53 110
E 24 72 104
E 25 29 103
E 25 54 98
E 25 56 94
E 25 60 101
E 25 64 103
E 25 70 102
E 25 71 96
E 25 75 94
E 25 76 104
E 25 79 102
E 25 80 103
E 26 29 91
E 26 33 108
E 26 36 98
E 26 37 96
E 26 42 96
E 26 49 95
E 26 54 104
E 26 61 102
E 26 62 100
E 26 67 101
E 26 70 103
E 26 72 108
E 26 74 94
E 26 75 101
E 27 28 96
E 27 33 102
E 27 39 102
E 27 41 109
E 27 49 99
E 27 52 111
E 27 61 98
E 27 63 101
E 27 73 104
E 27 74 99
E 27 75 101
E 28 34 95
E 28 38 97
E 28 39 105
E 28 40 103
E 28 41 105
E 28 42 102
E 28 44 95
E 28 51 95
E 28 52 106
E 28 54 105
E 28 55 105
E 28 62 97
E 28 69 103
E 28 76 93
E 28 79 91
E 29 37 102
E 29 39 99
E 29 41 100
E 29 43 99
E 29 45 98
E 29 50 106
E 29 57 103
E 29 60 105
E 29 62 100
E 29 65 94
E 29 70 107
E 29 71 106
E 29 76 111
E 30 31 95
E 30 35 101
E 30 36 101
E 30 39 96
E 30 41 91
E 30 43 100
E 30 51 101
E 30 60 91
E 30 63 101
E 30 65 91
E 30 69 106
E 30 72 97
E 30 76 97
E 31 37 100
E 31 41 95
E 31 44 93
E 31 48 98
E 31 51 109
E 31 79 99
E 32 36 103
E 32 42 96
E 32 49 110
E 32 57 106
E 32 60 107
E 32 61 97
E 32 68 101
E 32 76 101
E 33 34 86
E 33 37 100
E 33 40 105
E 33 42 105
E 33 44 106
E 33 52 98
E 33 57 99
E 33 59 99
E 33 66 100
E 33 69 101
E 33 71 89
E 33 75 94
E 34 39 98
E 34 40 102
E 34 45 94
E 34 52 96
E 34 62 101
E 34 64 96
E 34 65 89
E 34 74 104
E 34 77 100
E 35 42 102
E 35 45 95
E 35 46 102
E 35 49 101
E 35 58 96
E 35 59 106
E 35 64 97
E 35 67 109
E 35 69 101
E 35 70 98
E 35 75 102
E 35 79 103
E 36 39 97
E 36 44 106
E 36 47 95
E 36 51 101
E 36 54 105
E 36 58 101
E 36 60 93
E 36 80 101
E 37 43 93
E 37 47 106
E 37 50 107
E 37 53 103
E 37 55 99
E 37 56 102
E 37 58 97
E 37 63 102
E 37 72 96
E 37 74 92
E 37 75 105
E 37 77 109
E 37 80 94
E 38 46 104
E 38 50 105
E 38 51 99
E 38 56 95
E 38 57 97
E 38 60 101
E 38 66 95
E 38 72 91
E 39 44 103
E 39 56 102
E 39 58 97
E 39 67 99
E 39 75 97
E 40 45 96
E 40 50 99
E 40 51 96
E 40 56 91
E 40 68 98
E 40 72 99
E 40 75 91
E 41 46 87
E 41 48 92
E 41 65 99
E 41 66 100
E 41 70 107
E 41 78 101
E 41 80 98
E 42 49 100
E 42 54 92
E 42 55 91
E 42 60 100
E 42 61 101
E 43 49 87
E 43 50 98
E 43 54 103
E 43 58 96
E 43 65 95
E 43 69 105
E 43 78 107
E 44 46 113
E 44 56 106
E 44 60 100
E 44 63 97
E 44 65 98
E 44 66 90
E 44 75 106
E 44 80 99
E 45 46 99
E 45 52 105
E 45 57 95
E 45 67 99
E 45 69 101
E 45 77 103
E 46 49 98
E 46 51 99
E 46 54 93
E 46 57 98
E 46 64 93
E 46 77 94
E 46 79 99
E 47 50 103
E 47 56 100
E 47 63 103
E 47 64 101
E 47 67 101
E 47 72 105
E 47 75 103
E 47 79 100
E 48 49 102
E 48 51 96
E 48 54 99
E 48 57 101
E 48 70 99
E 48 72 100
E 48 74 92
E 48 75 95
E 48 79 103
E 48 80 92
E 49 55 96
E 49 59 97
E 49 62 92
E 49 75 97
E 49 76 97
E 50 51 97
E 50 69 94
E 50 70 106
E 50 73 94
E 50 78 97
E 50 79 103
E 50 80 110
E 51 56 104
E 51 60 94
E 51 64 97
E 51 67 104
E 51 72 107
E 51 76 92
E 51 79 95
E 52 66 93
E 52 74 97
E 53 57 98
E 53 76 97
E 53 79 102
E 54 64 97
E 54 68 102
E 54 70 92
E 54 80 97
E 55 62 103
E 55 64 99
E 55 70 101
E 56 63 101
E 56 68 102
E 56 73 101
E 57 68 91
E 57 73 95
E 57 77 108
E 58 62 105
E 58 63 100
E 58 64 109
E 58 66 103
E 58 72 100
E 58 75 91
E 59 63 98
E 59 67 103
E 59 68 106
E 59 74 97
E 59 76 101
E 59 77 91
E 60 61 94
E 60 63 95
E 60 70 108
E 60 72 101
E 60 73 96
E 60 76 96
E 61 62 98
E 61 63 106
E 61 64 94
E 61 68 103
E 62 66 91
E 63 71 91
E 63 72 94
E 63 79 104
E 64 70 105
E 64 74 96
E 64 75 100
E 64 76 106
E 65 66 107
E 65 70 100
E 65 72 96
E 65 75 97
E 66 67 96
E 66 69 106
E 66 70 104
E 66 73 91
E 66 75 93
E 66 79 106
E 67 71 95
E 68 71 102
E 68 74 97
E 69 71 100
E 69 78 94
E 70 74 106
E 70 77 98
E 71 72 93
E 71 73 104
E 72 80 97
E 73 76 94
E 74 76 99
E 75 79 112
E 77 80 98
END

SECTION Terminals
Terminals 8
T 1
T 2
T 3
T 4
T 5
T 6
T 7
T 8
END

EOF
